
-14.86
-4.94
-4.86
-4.82
-4.64
-4.6
-4.56
-4.56
-4.54
-4.48
-4.44
-4.44
-4.4
-4.38
-4.34
-4.32
-4.32
-4.28
-4.28
-4.26
-4.22
-4.22
-4.22
-4.22
-4.22
-4.22
-4.22
-4.22
-4.22
-4.22
-4.22
-4.22
-4.22
-4.22
-4.22
-4.22
-4.22
-4.22